&CONTROL
   calculation      = 'scf'
   tstress          = .true.
   tprnfor          = .true.
   outdir           = './out/'
   prefix           = 'qe_calc'
   pseudo_dir       = 'root/MLNEB/pseudo/'
/
&SYSTEM
   nbnd             = 742
   ecutwfc          = 25
   ecutrho          = 225
   occupations      = 'smearing'
   degauss          = 0.01
   smearing         = 'gaussian'
   nspin            = 1
   ntyp             = 5
   nat              = 85
   ibrav            = 0
/
&ELECTRONS
   conv_thr         = 0.0001
   mixing_beta      = 0.1
/
&IONS
/
&CELL
/

ATOMIC_SPECIES
O 15.999 O.pbe-rrkjus.UPF
Co 58.933194 Co.pbe-nd-rrkjus.UPF
La 138.90547 La.pbe-nsp-van.UPF
C 12.011 C.pbe-rrkjus.UPF
H 1.008 H.pbe-rrkjus.UPF

K_POINTS automatic
2 1 1  0 0 0

CELL_PARAMETERS angstrom
10.71382759576747 0.00000000000000 0.00000000000000
0.00000000000000 10.86718532397328 0.00000000000000
0.00000000000000 0.00000000000000 21.02490098455485

ATOMIC_POSITIONS angstrom
O 2.3607846789 4.0442200174 13.3234352958 
O 10.3948343608 4.1105319140 13.3226122060 
Co 9.0696257583 2.7501798142 13.2732265499 
Co 1.0307050347 5.3992261851 13.2789627332 
O 2.3799474309 1.3494604227 13.0714661592 
O 10.4177126682 1.3712346702 13.0740797974 
La 1.0201012916 2.7278280914 11.5430620488 
O 9.1750300012 3.0492884531 11.2889820203 
O 1.1374313639 5.1072414380 11.2907631941 
La 9.0500207930 5.4307331414 11.5504334300 
O 10.3084260020 1.2056698747 9.6660795399 
O 7.6299691030 1.5111275277 9.6660795399 
Co 6.4456561723 0.0000000000 9.4516519230 
Co 9.1241119999 2.7167974024 9.4516519230 
O 10.6182559681 3.9224672770 9.2372232347 
O 7.9397990691 4.2279249301 9.2372232347 
O 6.4842698784 0.3054565817 7.5444834727 
O 9.1627267773 2.4113397493 7.5444834727 
La 6.4842698784 2.7167974024 7.5444834727 
La 9.1627267773 5.4335948048 7.5444834727 
O 2.3613822426 9.4822741850 13.3242174052 
O 10.3972950591 9.5425223231 13.3188171004 
Co 9.0653929928 8.1885120057 13.2760804457 
Co 1.0307950308 10.8334421240 13.2679154377 
O 2.3791966595 6.7831939715 13.0827716579 
O 10.4153518763 6.8057492570 13.0776493769 
La 1.0211033024 8.1545304230 11.5490848270 
O 9.1700660170 8.4801919443 11.2889380936 
O 1.1342932838 10.5339585012 11.2873010207 
La 9.0549344222 10.8604712361 11.5431255282 
O 10.3084260020 6.6392646794 9.6660795399 
O 7.6299691030 6.9447223325 9.6660795399 
Co 6.4456561723 5.4335948048 9.4516519230 
Co 9.1241119999 8.1503922071 9.4516519230 
O 10.6182559681 9.3560620818 9.2372232347 
O 7.9397990691 9.6615186635 9.2372232347 
O 6.4842698784 5.7390524578 7.5444834727 
O 9.1627267773 7.8449345541 7.5444834727 
La 6.4842698784 8.1503922071 7.5444834727 
La 9.1627267773 0.0000000000 7.5444834727 
O 7.7203059546 4.0385674019 13.3118970392 
O 5.0359031492 4.1024571700 13.3124718360 
Co 3.7068448005 2.7512388761 13.2779355449 
Co 6.3861770192 5.4021207934 13.3015697129 
O 7.7381592090 1.3462237754 13.0719664949 
O 5.0580472916 1.3685546062 13.0721440766 
La 6.3757653215 2.7343169211 11.5522620125 
O 3.8118823627 3.0488382045 11.2892139746 
O 6.4857012457 5.1193895793 11.2971181010 
La 3.7034546776 5.4300908474 11.5521133582 
O 4.9515122041 1.2056698747 9.6660795399 
O 2.2730553052 1.5111275277 9.6660795399 
Co 1.0887423744 0.0000000000 9.4516519230 
Co 3.7671992734 2.7167974024 9.4516519230 
O 5.2613421702 3.9224672770 9.2372232347 
O 2.5828852713 4.2279249301 9.2372232347 
O 1.1273571519 0.3054565817 7.5444834727 
O 3.8058140508 2.4113397493 7.5444834727 
La 1.1273571519 2.7167974024 7.5444834727 
La 3.8058140508 5.4335948048 7.5444834727 
O 7.7193293892 9.4767600458 13.3244504310 
O 5.0404313484 9.5399662717 13.3238408142 
Co 3.7075886080 8.1910018992 13.2820531367 
Co 6.3885252224 10.8297391573 13.2688129886 
O 7.7395581671 6.7859758168 13.0724571882 
O 5.0520226385 6.8079763939 13.0805292538 
La 6.3747874169 8.1475404541 11.5474772171 
O 3.8099461063 8.4798957070 11.2910811269 
O 6.4929263832 10.5298331419 11.2878688536 
La 3.6993678881 10.8610045168 11.5434182836 
O 4.9515122041 6.6392646794 9.6660795399 
O 2.2730553052 6.9447223325 9.6660795399 
Co 1.0887423744 5.4335948048 9.4516519230 
Co 3.7671992734 8.1503922071 9.4516519230 
O 5.2613421702 9.3560620818 9.2372232347 
O 2.5828852713 9.6615186635 9.2372232347 
O 1.1273571519 5.7390524578 7.5444834727 
O 3.8058140508 7.8449345541 7.5444834727 
La 1.1273571519 8.1503922071 7.5444834727 
La 3.8058140508 0.0000000000 7.5444834727 
C 6.3275032781 5.6597012973 16.0494007883 
H 5.7445955244 4.2946412738 16.2228833703 
H 7.0175372546 5.0190679762 15.7433903018 
H 5.6164616283 6.0021146915 15.5897529426 
H 6.7991018627 6.4308496626 16.5436679572 

